p cnf 14 64
-4 11 12 0
-4 -5 -13 0
5 -6 -9 0
1 9 -13 0
-4 10 13 0
1 -10 -12 0
-6 8 13 0
-2 -4 -10 0
8 -9 -12 0
-1 3 9 0
7 -10 -13 0
-1 -9 -11 0
-3 5 6 0
3 -4 -13 0
-1 -7 10 0
1 2 -12 0
3 10 13 0
8 -11 -13 0
7 9 -13 0
9 -12 13 0
-7 12 14 0
-5 -6 -14 0
2 3 13 0
6 10 12 0
-2 4 14 0
3 6 -13 0
-1 6 -14 0
-2 5 -10 0
1 2 -5 0
-5 -7 -9 0
-1 4 14 0
7 -9 12 0
-2 8 14 0
-1 -5 10 0
-5 10 12 0
12 -13 -14 0
-10 12 13 0
3 7 8 0
-2 3 14 0
10 11 -12 0
-4 -12 -13 0
1 9 12 0
7 -11 12 0
5 -12 -14 0
-4 -10 14 0
-4 -6 -13 0
3 8 -14 0
-4 10 14 0
2 11 14 0
-4 -12 13 0
2 -3 -7 0
2 -6 -14 0
5 -9 -11 0
-1 -5 7 0
-2 -12 13 0
6 9 -13 0
-6 7 -8 0
3 -11 -12 0
5 9 -10 0
3 12 -13 0
2 -3 11 0
-4 6 -10 0
-1 9 14 0
-3 6 13 0
